============================[ Problem Statistics ]=============================|                                                                             ||  Number of variables:          4242                                         ||  Number of clauses:            9945                                         ||  Parse time:                   0.34 s                                       ||                                                                             |============================[ Search Statistics ]==============================| Conflicts |          ORIGINAL         |          LEARNT          | Progress ||           |    Vars  Clauses Literals |    Limit  Clauses Lit/Cl |          |===============================================================================|       100 |    1591     6150   532051 |     2255      100     53 | 62.501 % |===============================================================================restarts              : 2conflicts             : 196            (379 /sec)decisions             : 368            (0.00 % random) (712 /sec)propagations          : 10059          (19456 /sec)conflict literals     : 13729          (95.17 % deleted)CPU time              : 0.517 sSATISFIABLE